c nIsolatedPIs 0
c maxPI 32
p cnf 266 703
c gate 33 5 -21 0
5 -33 0
-21 -33 0
-5 21 33 0
c gate 34 -3 19 0
-3 -34 0
19 -34 0
3 -19 34 0
c gate 35 -2 18 0
-2 -35 0
18 -35 0
2 -18 35 0
c gate 36 -1 17 0
-1 -36 0
17 -36 0
1 -17 36 0
c gate 37 -35 -36 0
-35 -37 0
-36 -37 0
35 36 37 0
c gate 38 2 -18 0
2 -38 0
-18 -38 0
-2 18 38 0
c gate 39 3 -19 0
3 -39 0
-19 -39 0
-3 19 39 0
c gate 40 -38 -39 0
-38 -40 0
-39 -40 0
38 39 40 0
c gate 41 -37 40 0
-37 -41 0
40 -41 0
37 -40 41 0
c gate 42 -34 -41 0
-34 -42 0
-41 -42 0
34 41 42 0
c gate 43 4 -20 0
4 -43 0
-20 -43 0
-4 20 43 0
c gate 44 -42 -43 0
-42 -44 0
-43 -44 0
42 43 44 0
c gate 45 -4 20 0
-4 -45 0
20 -45 0
4 -20 45 0
c gate 46 -44 -45 0
-44 -46 0
-45 -46 0
44 45 46 0
c gate 47 -33 -46 0
-33 -47 0
-46 -47 0
33 46 47 0
c gate 48 6 -22 0
6 -48 0
-22 -48 0
-6 22 48 0
c gate 49 -6 22 0
-6 -49 0
22 -49 0
6 -22 49 0
c gate 50 -48 -49 0
-48 -50 0
-49 -50 0
48 49 50 0
c gate 51 -5 21 0
-5 -51 0
21 -51 0
5 -21 51 0
c gate 52 50 -51 0
50 -52 0
-51 -52 0
-50 51 52 0
c gate 53 -47 52 0
-47 -53 0
52 -53 0
47 -52 53 0
c gate 54 5 21 0
5 -54 0
21 -54 0
-5 -21 54 0
c gate 55 -33 -51 0
-33 -55 0
-51 -55 0
33 51 55 0
c gate 56 -54 55 0
-54 -56 0
55 -56 0
54 -55 56 0
c gate 57 -46 56 0
-46 -57 0
56 -57 0
46 -56 57 0
c gate 58 -50 57 0
-50 -58 0
57 -58 0
50 -57 58 0
c gate 59 -53 -58 0
-53 -59 0
-58 -59 0
53 58 59 0
c gate 60 8 24 0
8 -60 0
24 -60 0
-8 -24 60 0
c gate 61 -8 -24 0
-8 -61 0
-24 -61 0
8 24 61 0
c gate 62 -60 -61 0
-60 -62 0
-61 -62 0
60 61 62 0
c gate 63 7 -23 0
7 -63 0
-23 -63 0
-7 23 63 0
c gate 64 -7 23 0
-7 -64 0
23 -64 0
7 -23 64 0
c gate 65 -63 -64 0
-63 -65 0
-64 -65 0
63 64 65 0
c gate 66 -6 -22 0
-6 -66 0
-22 -66 0
6 22 66 0
c gate 67 4 20 0
4 -67 0
20 -67 0
-4 -20 67 0
c gate 68 -4 -20 0
-4 -68 0
-20 -68 0
4 20 68 0
c gate 69 3 19 0
3 -69 0
19 -69 0
-3 -19 69 0
c gate 70 1 17 0
1 -70 0
17 -70 0
-1 -17 70 0
c gate 71 2 18 0
2 -71 0
18 -71 0
-2 -18 71 0
c gate 72 -70 -71 0
-70 -72 0
-71 -72 0
70 71 72 0
c gate 73 -34 -39 0
-34 -73 0
-39 -73 0
34 39 73 0
c gate 74 -72 -73 0
-72 -74 0
-73 -74 0
72 73 74 0
c gate 75 -69 -74 0
-69 -75 0
-74 -75 0
69 74 75 0
c gate 76 -68 -75 0
-68 -76 0
-75 -76 0
68 75 76 0
c gate 77 -67 -76 0
-67 -77 0
-76 -77 0
67 76 77 0
c gate 78 -2 -18 0
-2 -78 0
-18 -78 0
2 18 78 0
c gate 79 -69 78 0
-69 -79 0
78 -79 0
69 -78 79 0
c gate 80 -67 79 0
-67 -80 0
79 -80 0
67 -79 80 0
c gate 81 -77 -80 0
-77 -81 0
-80 -81 0
77 80 81 0
c gate 82 -55 81 0
-55 -82 0
81 -82 0
55 -81 82 0
c gate 83 -54 -82 0
-54 -83 0
-82 -83 0
54 82 83 0
c gate 84 -50 83 0
-50 -84 0
83 -84 0
50 -83 84 0
c gate 85 -66 -84 0
-66 -85 0
-84 -85 0
66 84 85 0
c gate 86 -65 -85 0
-65 -86 0
-85 -86 0
65 85 86 0
c gate 87 62 86 0
62 -87 0
86 -87 0
-62 -86 87 0
c gate 88 -35 70 0
-35 -88 0
70 -88 0
35 -70 88 0
c gate 89 -38 88 0
-38 -89 0
88 -89 0
38 -88 89 0
c gate 90 55 -81 0
55 -90 0
-81 -90 0
-55 81 90 0
c gate 91 -82 -90 0
-82 -91 0
-90 -91 0
82 90 91 0
c gate 92 54 -77 0
54 -92 0
-77 -92 0
-54 77 92 0
c gate 93 -54 77 0
-54 -93 0
77 -93 0
54 -77 93 0
c gate 94 -92 -93 0
-92 -94 0
-93 -94 0
92 93 94 0
c gate 95 91 94 0
91 -95 0
94 -95 0
-91 -94 95 0
c gate 96 -91 -94 0
-91 -96 0
-94 -96 0
91 94 96 0
c gate 97 -95 -96 0
-95 -97 0
-96 -97 0
95 96 97 0
c gate 98 70 78 0
70 -98 0
78 -98 0
-70 -78 98 0
c gate 99 73 98 0
73 -99 0
98 -99 0
-73 -98 99 0
c gate 100 -67 -68 0
-67 -100 0
-68 -100 0
67 68 100 0
c gate 101 79 -100 0
79 -101 0
-100 -101 0
-79 100 101 0
c gate 102 -75 101 0
-75 -102 0
101 -102 0
75 -101 102 0
c gate 103 -99 -102 0
-99 -103 0
-102 -103 0
99 102 103 0
c gate 104 97 103 0
97 -104 0
103 -104 0
-97 -103 104 0
c gate 105 50 77 0
50 -105 0
77 -105 0
-50 -77 105 0
c gate 106 83 -105 0
83 -106 0
-105 -106 0
-83 105 106 0
c gate 107 104 -106 0
104 -107 0
-106 -107 0
-104 106 107 0
c gate 108 -86 107 0
-86 -108 0
107 -108 0
86 -107 108 0
c gate 109 89 108 0
89 -109 0
108 -109 0
-89 -108 109 0
c gate 110 -87 -109 0
-87 -110 0
-109 -110 0
87 109 110 0
c gate 111 16 -32 0
16 -111 0
-32 -111 0
-16 32 111 0
c gate 112 -16 32 0
-16 -112 0
32 -112 0
16 -32 112 0
c gate 113 -111 -112 0
-111 -113 0
-112 -113 0
111 112 113 0
c gate 114 15 31 0
15 -114 0
31 -114 0
-15 -31 114 0
c gate 115 -15 -31 0
-15 -115 0
-31 -115 0
15 31 115 0
c gate 116 -114 -115 0
-114 -116 0
-115 -116 0
114 115 116 0
c gate 117 -14 -30 0
-14 -117 0
-30 -117 0
14 30 117 0
c gate 118 14 30 0
14 -118 0
30 -118 0
-14 -30 118 0
c gate 119 -117 -118 0
-117 -119 0
-118 -119 0
117 118 119 0
c gate 120 -13 -29 0
-13 -120 0
-29 -120 0
13 29 120 0
c gate 121 13 29 0
13 -121 0
29 -121 0
-13 -29 121 0
c gate 122 -12 -28 0
-12 -122 0
-28 -122 0
12 28 122 0
c gate 123 -9 -25 0
-9 -123 0
-25 -123 0
9 25 123 0
c gate 124 -7 -23 0
-7 -124 0
-23 -124 0
7 23 124 0
c gate 125 -61 -124 0
-61 -125 0
-124 -125 0
61 124 125 0
c gate 126 -86 125 0
-86 -126 0
125 -126 0
86 -125 126 0
c gate 127 -60 -126 0
-60 -127 0
-126 -127 0
60 126 127 0
c gate 128 -123 -127 0
-123 -128 0
-127 -128 0
123 127 128 0
c gate 129 9 25 0
9 -129 0
25 -129 0
-9 -25 129 0
c gate 130 10 26 0
10 -130 0
26 -130 0
-10 -26 130 0
c gate 131 -129 -130 0
-129 -131 0
-130 -131 0
129 130 131 0
c gate 132 -128 131 0
-128 -132 0
131 -132 0
128 -131 132 0
c gate 133 -11 -27 0
-11 -133 0
-27 -133 0
11 27 133 0
c gate 134 -10 -26 0
-10 -134 0
-26 -134 0
10 26 134 0
c gate 135 -133 -134 0
-133 -135 0
-134 -135 0
133 134 135 0
c gate 136 -132 135 0
-132 -136 0
135 -136 0
132 -135 136 0
c gate 137 11 27 0
11 -137 0
27 -137 0
-11 -27 137 0
c gate 138 12 28 0
12 -138 0
28 -138 0
-12 -28 138 0
c gate 139 -137 -138 0
-137 -139 0
-138 -139 0
137 138 139 0
c gate 140 -136 139 0
-136 -140 0
139 -140 0
136 -139 140 0
c gate 141 -122 -140 0
-122 -141 0
-140 -141 0
122 140 141 0
c gate 142 -121 -141 0
-121 -142 0
-141 -142 0
121 141 142 0
c gate 143 -120 -142 0
-120 -143 0
-142 -143 0
120 142 143 0
c gate 144 119 -143 0
119 -144 0
-143 -144 0
-119 143 144 0
c gate 145 -117 -144 0
-117 -145 0
-144 -145 0
117 144 145 0
c gate 146 116 145 0
116 -146 0
145 -146 0
-116 -145 146 0
c gate 147 -114 -146 0
-114 -147 0
-146 -147 0
114 146 147 0
c gate 148 -113 147 0
-113 -148 0
147 -148 0
113 -147 148 0
c gate 149 113 -147 0
113 -149 0
-147 -149 0
-113 147 149 0
c gate 150 -148 -149 0
-148 -150 0
-149 -150 0
148 149 150 0
c gate 151 -121 -138 0
-121 -151 0
-138 -151 0
121 138 151 0
c gate 152 119 -151 0
119 -152 0
-151 -152 0
-119 151 152 0
c gate 153 -118 -152 0
-118 -153 0
-152 -153 0
118 152 153 0
c gate 154 -114 153 0
-114 -154 0
153 -154 0
114 -153 154 0
c gate 155 113 154 0
113 -155 0
154 -155 0
-113 -154 155 0
c gate 156 -113 -154 0
-113 -156 0
-154 -156 0
113 154 156 0
c gate 157 -155 -156 0
-155 -157 0
-156 -157 0
155 156 157 0
c gate 158 150 157 0
150 -158 0
157 -158 0
-150 -157 158 0
c gate 159 -150 -157 0
-150 -159 0
-157 -159 0
150 157 159 0
c gate 160 -158 -159 0
-158 -160 0
-159 -160 0
158 159 160 0
c gate 161 -120 -121 0
-120 -161 0
-121 -161 0
120 121 161 0
c gate 162 138 161 0
138 -162 0
161 -162 0
-138 -161 162 0
c gate 163 141 -162 0
141 -163 0
-162 -163 0
-141 162 163 0
c gate 164 116 -153 0
116 -164 0
-153 -164 0
-116 153 164 0
c gate 165 -145 -164 0
-145 -165 0
-164 -165 0
145 164 165 0
c gate 166 -146 -165 0
-146 -166 0
-165 -166 0
146 165 166 0
c gate 167 145 153 0
145 -167 0
153 -167 0
-145 -153 167 0
c gate 168 -166 -167 0
-166 -168 0
-167 -168 0
166 167 168 0
c gate 169 -163 168 0
-163 -169 0
168 -169 0
163 -168 169 0
c gate 170 160 169 0
160 -170 0
169 -170 0
-160 -169 170 0
c gate 171 110 170 0
110 -171 0
170 -171 0
-110 -170 171 0
c gate 172 -133 -137 0
-133 -172 0
-137 -172 0
133 137 172 0
c gate 173 -10 26 0
-10 -173 0
26 -173 0
10 -26 173 0
c gate 174 10 -26 0
10 -174 0
-26 -174 0
-10 26 174 0
c gate 175 -173 -174 0
-173 -175 0
-174 -175 0
173 174 175 0
c gate 176 172 -175 0
172 -176 0
-175 -176 0
-172 175 176 0
c gate 177 -122 -138 0
-122 -177 0
-138 -177 0
122 138 177 0
c gate 178 -123 -129 0
-123 -178 0
-129 -178 0
123 129 178 0
c gate 179 177 178 0
177 -179 0
178 -179 0
-177 -178 179 0
c gate 180 176 179 0
176 -180 0
179 -180 0
-176 -179 180 0
c gate 181 87 180 0
87 -181 0
180 -181 0
-87 -180 181 0
c gate 182 87 -181 0
87 -182 0
-181 -182 0
-87 181 182 0
c gate 183 170 -182 0
170 -183 0
-182 -183 0
-170 182 183 0
c gate 184 -119 151 0
-119 -184 0
151 -184 0
119 -151 184 0
c gate 185 -152 -184 0
-152 -185 0
-184 -185 0
152 184 185 0
c gate 186 -119 143 0
-119 -186 0
143 -186 0
119 -143 186 0
c gate 187 -144 -186 0
-144 -187 0
-186 -187 0
144 186 187 0
c gate 188 185 187 0
185 -188 0
187 -188 0
-185 -187 188 0
c gate 189 -185 -187 0
-185 -189 0
-187 -189 0
185 187 189 0
c gate 190 141 -161 0
141 -190 0
-161 -190 0
-141 161 190 0
c gate 191 -189 -190 0
-189 -191 0
-190 -191 0
189 190 191 0
c gate 192 -188 -191 0
-188 -192 0
-191 -192 0
188 191 192 0
c gate 193 -166 -192 0
-166 -193 0
-192 -193 0
166 192 193 0
c gate 194 -158 -193 0
-158 -194 0
-193 -194 0
158 193 194 0
c gate 195 -159 -194 0
-159 -195 0
-194 -195 0
159 194 195 0
c gate 196 -183 195 0
-183 -196 0
195 -196 0
183 -195 196 0
c gate 197 -171 -196 0
-171 -197 0
-196 -197 0
171 196 197 0
c gate 198 -9 25 0
-9 -198 0
25 -198 0
9 -25 198 0
c gate 199 -48 -53 0
-48 -199 0
-53 -199 0
48 53 199 0
c gate 200 65 -199 0
65 -200 0
-199 -200 0
-65 199 200 0
c gate 201 -63 -200 0
-63 -201 0
-200 -201 0
63 200 201 0
c gate 202 -62 -201 0
-62 -202 0
-201 -202 0
62 201 202 0
c gate 203 8 -24 0
8 -203 0
-24 -203 0
-8 24 203 0
c gate 204 9 -25 0
9 -204 0
-25 -204 0
-9 25 204 0
c gate 205 -203 -204 0
-203 -205 0
-204 -205 0
203 204 205 0
c gate 206 -202 205 0
-202 -206 0
205 -206 0
202 -205 206 0
c gate 207 -198 -206 0
-198 -207 0
-206 -207 0
198 206 207 0
c gate 208 175 -207 0
175 -208 0
-207 -208 0
-175 207 208 0
c gate 209 -173 -208 0
-173 -209 0
-208 -209 0
173 208 209 0
c gate 210 -172 -209 0
-172 -210 0
-209 -210 0
172 209 210 0
c gate 211 -116 -161 0
-116 -211 0
-161 -211 0
116 161 211 0
c gate 212 113 -177 0
113 -212 0
-177 -212 0
-113 177 212 0
c gate 213 -119 212 0
-119 -213 0
212 -213 0
119 -212 213 0
c gate 214 211 213 0
211 -214 0
213 -214 0
-211 -213 214 0
c gate 215 210 214 0
210 -215 0
214 -215 0
-210 -214 215 0
c gate 216 175 -205 0
175 -216 0
-205 -216 0
-175 205 216 0
c gate 217 -174 -216 0
-174 -217 0
-216 -217 0
174 216 217 0
c gate 218 172 -217 0
172 -218 0
-217 -218 0
-172 217 218 0
c gate 219 172 209 0
172 -219 0
209 -219 0
-172 -209 219 0
c gate 220 -210 -219 0
-210 -220 0
-219 -220 0
210 219 220 0
c gate 221 -218 -220 0
-218 -221 0
-220 -221 0
218 220 221 0
c gate 222 -175 205 0
-175 -222 0
205 -222 0
175 -205 222 0
c gate 223 -216 -222 0
-216 -223 0
-222 -223 0
216 222 223 0
c gate 224 -175 207 0
-175 -224 0
207 -224 0
175 -207 224 0
c gate 225 -208 -224 0
-208 -225 0
-224 -225 0
208 224 225 0
c gate 226 223 225 0
223 -226 0
225 -226 0
-223 -225 226 0
c gate 227 -223 -225 0
-223 -227 0
-225 -227 0
223 225 227 0
c gate 228 -178 202 0
-178 -228 0
202 -228 0
178 -202 228 0
c gate 229 -200 -202 0
-200 -229 0
-202 -229 0
200 202 229 0
c gate 230 59 -200 0
59 -230 0
-200 -230 0
-59 200 230 0
c gate 231 -56 230 0
-56 -231 0
230 -231 0
56 -230 231 0
c gate 232 -113 -160 0
-113 -232 0
-160 -232 0
113 160 232 0
c gate 233 231 -232 0
231 -233 0
-232 -233 0
-231 232 233 0
c gate 234 -197 233 0
-197 -234 0
233 -234 0
197 -233 234 0
c gate 235 -154 231 0
-154 -235 0
231 -235 0
154 -231 235 0
c gate 236 148 235 0
148 -236 0
235 -236 0
-148 -235 236 0
c gate 237 57 230 0
57 -237 0
230 -237 0
-57 -230 237 0
c gate 238 53 -65 0
53 -238 0
-65 -238 0
-53 65 238 0
c gate 239 -237 -238 0
-237 -239 0
-238 -239 0
237 238 239 0
c gate 240 -236 239 0
-236 -240 0
239 -240 0
236 -239 240 0
c gate 241 -233 240 0
-233 -241 0
240 -241 0
233 -240 241 0
c gate 242 -234 -241 0
-234 -242 0
-241 -242 0
234 241 242 0
c gate 243 229 -242 0
229 -243 0
-242 -243 0
-229 242 243 0
c gate 244 -228 -243 0
-228 -244 0
-243 -244 0
228 243 244 0
c gate 245 -227 -244 0
-227 -245 0
-244 -245 0
227 244 245 0
c gate 246 -226 -245 0
-226 -246 0
-245 -246 0
226 245 246 0
c gate 247 -221 -246 0
-221 -247 0
-246 -247 0
221 246 247 0
c gate 248 -209 218 0
-209 -248 0
218 -248 0
209 -218 248 0
c gate 249 -210 -248 0
-210 -249 0
-248 -249 0
210 248 249 0
c gate 250 -247 249 0
-247 -250 0
249 -250 0
247 -249 250 0
c gate 251 -215 -250 0
-215 -251 0
-250 -251 0
215 250 251 0
c gate 252 -197 251 0
-197 -252 0
251 -252 0
197 -251 252 0
c gate 253 -108 -181 0
-108 -253 0
-181 -253 0
108 181 253 0
c gate 254 170 -253 0
170 -254 0
-253 -254 0
-170 253 254 0
c gate 255 195 -254 0
195 -255 0
-254 -255 0
-195 254 255 0
c gate 256 -251 -255 0
-251 -256 0
-255 -256 0
251 255 256 0
c gate 257 -252 -256 0
-252 -257 0
-256 -257 0
252 256 257 0
c gate 258 -56 257 0
-56 -258 0
257 -258 0
56 -257 258 0
c gate 259 -46 -251 0
-46 -259 0
-251 -259 0
46 251 259 0
c gate 260 46 251 0
46 -260 0
251 -260 0
-46 -251 260 0
c gate 261 56 -260 0
56 -261 0
-260 -261 0
-56 260 261 0
c gate 262 -259 261 0
-259 -262 0
261 -262 0
259 -261 262 0
c gate 263 -258 -262 0
-258 -263 0
-262 -263 0
258 262 263 0
c gate 264 59 263 0
59 -264 0
263 -264 0
-59 -263 264 0
c gate 265 -59 -263 0
-59 -265 0
-263 -265 0
59 263 265 0
c gate 266 -264 -265 0
-264 -266 0
-265 -266 0
264 265 266 0
c PO
266 0
